n_machines = 3;
n_resources = 6;
n_jobs = 120;
horizon = 6121;
LB = 2040;
n_jobs_per_resource = [20, 20, 20, 20, 20, 20];
duration = [91, 36, 99, 70, 22, 95, 88, 43, 56, 27, 46, 36, 44, 77, 60, 66, 7, 41, 72, 93, 11, 59, 4, 62, 80, 63, 17, 13, 93, 17, 59, 60, 45, 81, 13, 59, 12, 68, 71, 60, 46, 24, 30, 51, 94, 93, 15, 78, 3, 52, 82, 8, 62, 32, 93, 54, 42, 30, 53, 41, 37, 42, 59, 52, 75, 56, 13, 85, 95, 66, 78, 21, 7, 88, 44, 56, 90, 87, 44, 86, 55, 87, 70, 7, 42, 26, 64, 24, 3, 15, 52, 7, 79, 7, 58, 80, 39, 72, 57, 6, 84, 23, 71, 34, 81, 67, 59, 13, 55, 94, 52, 53, 54, 66, 51, 6, 66, 43, 11, 8]